10J3M/DAT/10J3MNTX-9.dat
10 3
33.0708 5.7507
26.2403 5.1225
28.3178 5.3214
22.7794 4.7728
13.5779 3.6848
20.7781 4.5583
33.1716 5.7595
22.0591 4.6967
35.7172 5.9764
19.3401 4.3977
12.5102