10J3M/SOL/10J3MNTX-9.sol
solution status: optimal solution found
objective value:                     67.3171713372675
x#1#2                                               1 	(obj:0)
x#2#1                               0.906236669350874 	(obj:0)
x#2#2                              0.0937633306491256 	(obj:0)
x#3#1                                               1 	(obj:0)
x#4#2                               0.929807446310575 	(obj:0)
x#4#3                              0.0701925536894255 	(obj:0)
x#6#3                              0.0286510321830508 	(obj:0)
x#7#2                               0.319717398905937 	(obj:0)
x#7#3                               0.680282601094063 	(obj:0)
x#8#3                                               1 	(obj:0)
x#9#1                               0.426109808789597 	(obj:0)
x#9#3                               0.573890191210403 	(obj:0)
z                                    67.3171713372675 	(obj:1)
